Route #1: 67 26 12 39 9 32 44 3 40 17
Route #2: 10 38 11 65 66 59 14 53
Route #3: 58 72 31 55 25 50 18 24 49 56 23 63 16 51
Route #4: 6 33 73 1 43 41 42 64 22 61 28 62
Route #5: 2 74 21 47 5 48 29 45 27 52 34
Route #6: 46 8 7 35 19 54 13 57 15 37 20 70 60 71 69 36
Route #7: 4 30 68 75
Cost 721